NAME 
ROWS
 N  OBJ
 L  R0      
 E  R1      
 E  R2      
 E  R3      
 E  R4      
 E  R5      
 E  R6      
 E  R7      
 E  R8      
 E  R9      
 E  R10     
 E  R11     
 E  R12     
 E  R13     
 E  R14     
 E  R15     
 E  R16     
 E  R17     
 E  R18     
 E  R19     
 E  R20     
 E  R21     
 E  R22     
 E  R23     
 E  R24     
 E  R25     
 E  R26     
 E  R27     
 E  R28     
 E  R29     
 E  R30     
COLUMNS
    MARKER    'MARKER'                 'INTORG'
    I0(3)     OBJ       131
    I0(3)     R0        179
    I0(3)     R1        5
    I0(3)     R30       1
    I1(3)     OBJ       -147
    I1(3)     R0        68
    I1(3)     R2        10
    I1(3)     R30       1
    I2(3)     OBJ       116
    I2(3)     R0        108
    I2(3)     R3        18
    I2(3)     R30       1
    I3(3)     OBJ       188
    I3(3)     R0        -107
    I3(3)     R4        4
    I3(3)     R30       1
    I4(2)     OBJ       58
    I4(2)     R0        135
    I4(2)     R30       1
    I5(3)     OBJ       25
    I5(3)     R0        -36
    I5(3)     R6        3
    I5(3)     R30       1
    I6(3)     OBJ       -177
    I6(3)     R0        83
    I6(3)     R7        -1
    I6(3)     R30       1
    I7(3)     OBJ       -111
    I7(3)     R0        130
    I7(3)     R8        14
    I7(3)     R30       1
    I8(3)     OBJ       148
    I8(3)     R0        -44
    I8(3)     R9        13
    I8(3)     R30       1
    I9(3)     OBJ       40
    I9(3)     R0        -132
    I9(3)     R10       1
    I9(3)     R30       1
    I10(3)    OBJ       150
    I10(3)    R0        111
    I10(3)    R11       2
    I10(3)    R30       1
    I11(3)    OBJ       -135
    I11(3)    R0        29
    I11(3)    R12       -1
    I11(3)    R30       1
    I12(3)    OBJ       197
    I12(3)    R0        19
    I12(3)    R13       11
    I12(3)    R30       1
    I13(3)    OBJ       -75
    I13(3)    R0        143
    I13(3)    R14       12
    I13(3)    R30       1
    I14(3)    OBJ       -101
    I14(3)    R0        -43
    I14(3)    R15       18
    I14(3)    R30       1
    I15(3)    OBJ       -103
    I15(3)    R0        188
    I15(3)    R16       19
    I15(3)    R30       1
    I16(3)    OBJ       -86
    I16(3)    R0        -111
    I16(3)    R17       13
    I16(3)    R30       1
    I17(2)    OBJ       -75
    I17(2)    R0        -11
    I17(2)    R30       1
    I18(3)    OBJ       5
    I18(3)    R0        74
    I18(3)    R19       12
    I18(3)    R30       1
    I19(3)    OBJ       197
    I19(3)    R0        -133
    I19(3)    R20       5
    I19(3)    R30       1
    I20(3)    OBJ       -96
    I20(3)    R0        45
    I20(3)    R21       4
    I20(3)    R30       1
    I21(3)    OBJ       -54
    I21(3)    R0        133
    I21(3)    R22       14
    I21(3)    R30       1
    I22(3)    OBJ       51
    I22(3)    R0        1
    I22(3)    R23       1
    I22(3)    R30       1
    I23(3)    OBJ       -157
    I23(3)    R0        -65
    I23(3)    R24       9
    I23(3)    R30       1
    I24(2)    OBJ       85
    I24(2)    R0        4
    I24(2)    R30       1
    I25(3)    OBJ       151
    I25(3)    R0        -135
    I25(3)    R26       3
    I25(3)    R30       1
    I26(3)    OBJ       59
    I26(3)    R0        66
    I26(3)    R27       6
    I26(3)    R30       1
    MARKER    'MARKER'                 'INTEND'
    C27(28)   OBJ       9
    C27(28)   R0        1
    C27(28)   R1        17
    C27(28)   R2        10
    C27(28)   R3        2
    C27(28)   R4        1
    C27(28)   R5        14
    C27(28)   R6        9
    C27(28)   R7        18
    C27(28)   R8        9
    C27(28)   R9        2
    C27(28)   R10       14
    C27(28)   R11       1
    C27(28)   R12       14
    C27(28)   R13       11
    C27(28)   R14       11
    C27(28)   R15       8
    C27(28)   R16       10
    C27(28)   R18       17
    C27(28)   R19       16
    C27(28)   R20       11
    C27(28)   R21       3
    C27(28)   R23       11
    C27(28)   R24       8
    C27(28)   R25       11
    C27(28)   R26       10
    C27(28)   R27       1
    C27(28)   R28       18
    C27(28)   R29       -1
    C28(27)   OBJ       4
    C28(27)   R0        -3
    C28(27)   R1        5
    C28(27)   R2        -1
    C28(27)   R3        14
    C28(27)   R4        5
    C28(27)   R6        11
    C28(27)   R7        11
    C28(27)   R8        12
    C28(27)   R9        5
    C28(27)   R10       3
    C28(27)   R11       17
    C28(27)   R12       3
    C28(27)   R13       17
    C28(27)   R14       19
    C28(27)   R15       18
    C28(27)   R16       9
    C28(27)   R17       1
    C28(27)   R18       16
    C28(27)   R19       18
    C28(27)   R20       17
    C28(27)   R21       17
    C28(27)   R22       4
    C28(27)   R23       4
    C28(27)   R24       18
    C28(27)   R25       6
    C28(27)   R26       12
    C28(27)   R27       15
    C29(28)   OBJ       4
    C29(28)   R0        4
    C29(28)   R1        -1
    C29(28)   R2        4
    C29(28)   R3        5
    C29(28)   R4        6
    C29(28)   R5        10
    C29(28)   R6        18
    C29(28)   R7        14
    C29(28)   R9        14
    C29(28)   R10       -1
    C29(28)   R11       4
    C29(28)   R12       7
    C29(28)   R13       16
    C29(28)   R14       12
    C29(28)   R15       4
    C29(28)   R16       19
    C29(28)   R17       19
    C29(28)   R18       5
    C29(28)   R19       1
    C29(28)   R20       18
    C29(28)   R21       4
    C29(28)   R23       15
    C29(28)   R24       12
    C29(28)   R25       5
    C29(28)   R26       16
    C29(28)   R27       9
    C29(28)   R28       7
    C29(28)   R29       -1
    C30(1)    R1        1
    C31(1)    R2        1
    C32(1)    R3        1
    C33(1)    R4        1
    C34(1)    R5        1
    C35(1)    R6        1
    C36(1)    R7        1
    C37(1)    R8        1
    C38(1)    R9        1
    C39(1)    R10       1
    C40(1)    R11       1
    C41(1)    R12       1
    C42(1)    R13       1
    C43(1)    R14       1
    C44(1)    R15       1
    C45(1)    R16       1
    C46(1)    R17       1
    C47(1)    R18       1
    C48(1)    R19       1
    C49(1)    R20       1
    C50(1)    R21       1
    C51(1)    R22       1
    C52(1)    R23       1
    C53(1)    R24       1
    C54(1)    R25       1
    C55(1)    R26       1
    C56(1)    R27       1
    C57(1)    R28       1
    C58(1)    R29       1
    C59(1)    R30       1
RHS
    RHS1      R0        324
    RHS1      R1        95
    RHS1      R2        66
    RHS1      R3        96
    RHS1      R4        94
    RHS1      R5        79
    RHS1      R6        60
    RHS1      R7        89
    RHS1      R8        80
    RHS1      R9        93
    RHS1      R10       94
    RHS1      R11       83
    RHS1      R12       52
    RHS1      R13       64
    RHS1      R14       64
    RHS1      R15       70
    RHS1      R16       78
    RHS1      R17       78
    RHS1      R18       87
    RHS1      R19       55
    RHS1      R20       69
    RHS1      R21       70
    RHS1      R22       78
    RHS1      R23       93
    RHS1      R24       92
    RHS1      R25       96
    RHS1      R26       63
    RHS1      R27       60
    RHS1      R28       90
    RHS1      R29       68
    RHS1      R30       9
BOUNDS
 UP BND1      I0(3)     1
 UP BND1      I1(3)     1
 UP BND1      I2(3)     1
 UP BND1      I3(3)     1
 UP BND1      I4(2)     1
 UP BND1      I5(3)     1
 UP BND1      I6(3)     1
 UP BND1      I7(3)     1
 UP BND1      I8(3)     1
 UP BND1      I9(3)     1
 UP BND1      I10(3)    1
 UP BND1      I11(3)    1
 UP BND1      I12(3)    1
 UP BND1      I13(3)    1
 UP BND1      I14(3)    1
 UP BND1      I15(3)    1
 UP BND1      I16(3)    1
 UP BND1      I17(2)    1
 UP BND1      I18(3)    1
 UP BND1      I19(3)    1
 UP BND1      I20(3)    1
 UP BND1      I21(3)    1
 UP BND1      I22(3)    1
 UP BND1      I23(3)    1
 UP BND1      I24(2)    1
 UP BND1      I25(3)    1
 UP BND1      I26(3)    1
ENDATA
